20200120 54500.00 39400.00
20171231 54500.00 39200.00
20171106 54475.59 39182.05
20170407 54054.99 39166.41
20161222 54054.99 31521.98
20160613 54414.00 31277.95
20160407 54479.15 31292.13
20160204 46824.16 31301.13
